c read Graph
c width = 57
c time = 1016 ms
c width = 5
c time = 1310 ms
c width = 5
c time = 3859 ms
s td 66 6 70
b 1 1 2 15
b 2 2 3 15 16
b 3 12 13 27 28
b 4 3 15 16 29
b 5 12 27 28 42
b 6 29 43 44 58
b 7 42 55 56 69
b 8 29 44 58 59
b 9 42 55 68 69
b 10 3 4 5 18
b 11 5 6 7 20
b 12 7 8 9 22
b 13 9 10 11 24
b 14 3 16 17 29 30
b 15 12 26 27 41 42
b 16 11 12 26 41 42
b 17 29 30 44 45 59
b 18 41 42 54 55 68
b 19 29 30 45 59 60
b 20 47 60 61 62
b 21 49 62 63 64
b 22 51 64 65 66
b 23 53 66 67 68
b 24 5 18 19 20 33
b 25 7 20 21 22 35
b 26 9 22 23 24 37
b 27 11 24 25 26 39
b 28 26 39 40 41 54
b 29 11 26 41 42 54 68
b 30 11 26 39 41 54 68
b 31 11 24 26 39 54 68
b 32 11 24 39 53 54 68
b 33 9 11 24 39 53 68
b 34 9 24 38 39 53 68
b 35 38 51 52 53 66
b 36 9 24 38 53 66 68
b 37 9 24 38 51 53 66
b 38 9 24 37 38 51 66
b 39 9 22 24 37 51 66
b 40 7 9 22 37 51 66
b 41 7 22 36 37 51 66
b 42 36 49 50 51 64
b 43 7 22 36 51 64 66
b 44 7 22 36 49 51 64
b 45 7 22 35 36 49 64
b 46 7 20 22 35 49 64
b 47 5 7 20 35 49 64
b 48 5 20 34 35 49 64
b 49 34 47 48 49 62
b 50 5 20 34 49 62 64
b 51 5 20 34 47 49 62
b 52 5 20 33 34 47 62
b 53 5 18 20 33 47 62
b 54 3 5 18 33 47 62
b 55 3 18 32 33 47 62
b 56 3 17 18 32 47 62
b 57 17 30 31 32 45
b 58 32 45 46 47 60
b 59 3 17 32 47 60 62
b 60 3 17 29 30 45 60
b 61 3 17 30 32 45 60
b 62 3 17 32 45 47 60
b 63 32 45 47 60
b 64 56 69 70
b 65 43 57 58
b 66 13 14 28
1 2
2 4
3 66
3 5
4 14
5 15
6 65
6 8
7 64
7 9
8 17
9 18
10 54
11 47
12 40
13 33
14 60
15 16
16 29
17 19
18 29
19 60
20 59
21 50
22 43
23 36
24 53
25 46
26 39
27 31
28 30
29 30
30 31
31 32
32 33
33 34
34 36
35 37
36 37
37 38
38 39
39 40
40 41
41 43
42 44
43 44
44 45
45 46
46 47
47 48
48 50
49 51
50 51
51 52
52 53
53 54
54 55
55 56
56 59
57 61
58 63
59 62
60 61
61 62
62 63
